(set-logic QF_UF)
(declare-fun A0 () Bool)
(declare-fun A1 () Bool)
(declare-fun A2 () Bool)
(declare-fun A3 () Bool)
(declare-fun A4 () Bool)
(declare-fun A5 () Bool)
(declare-fun A6 () Bool)
(declare-fun A7 () Bool)
(declare-fun A8 () Bool)
(declare-fun A9 () Bool)
(declare-fun A10 () Bool)
(declare-fun A11 () Bool)
(declare-fun A12 () Bool)
(declare-fun A13 () Bool)
(declare-fun A14 () Bool)
(declare-fun A15 () Bool)
(declare-fun A16 () Bool)
(declare-fun A17 () Bool)
(declare-fun A18 () Bool)
(declare-fun A19 () Bool)
(declare-fun A20 () Bool)
(declare-fun A22 () Bool)
(declare-fun A23 () Bool)
(declare-fun A24 () Bool)
(assert (let ((.def_0 (not A24))) (let ((.def_1 (or A9 .def_0))) (let ((.def_2 (not .def_1))) (let ((.def_3 (or A8 A7))) (let ((.def_4 (not .def_3))) (let ((.def_5 (or .def_4 .def_2))) (let ((.def_6 (not .def_5))) (let ((.def_7 (not A18))) (let ((.def_8 (not A23))) (let ((.def_9 (and .def_8 .def_7))) (let ((.def_10 (not A16))) (let ((.def_11 (not A14))) (let ((.def_12 (and .def_11 .def_10))) (let ((.def_13 (and .def_12 .def_9))) (let ((.def_14 (not .def_13))) (let ((.def_15 (and .def_14 .def_6))) (let ((.def_16 (not .def_15))) (let ((.def_17 (not A6))) (let ((.def_18 (or A6 .def_17))) (let ((.def_19 (not .def_18))) (let ((.def_20 (not A3))) (let ((.def_21 (and .def_20 A12))) (let ((.def_22 (not .def_21))) (let ((.def_23 (or .def_22 .def_19))) (let ((.def_24 (not A8))) (let ((.def_25 (or .def_24 .def_11))) (let ((.def_26 (not .def_25))) (let ((.def_27 (not A2))) (let ((.def_28 (not A15))) (let ((.def_29 (and .def_28 .def_27))) (let ((.def_30 (not .def_29))) (let ((.def_31 (and .def_30 .def_26))) (let ((.def_32 (= .def_31 .def_23))) (let ((.def_33 (or .def_32 .def_16))) (let ((.def_34 (or A16 A20))) (let ((.def_35 (not .def_34))) (let ((.def_36 (or .def_1 .def_35))) (let ((.def_37 (or A23 A19))) (let ((.def_38 (not .def_37))) (let ((.def_39 (not A0))) (let ((.def_40 (and A24 .def_39))) (let ((.def_41 (and .def_40 .def_38))) (let ((.def_42 (and .def_41 .def_36))) (let ((.def_43 (not .def_42))) (let ((.def_44 (not A1))) (let ((.def_45 (or .def_44 A7))) (let ((.def_46 (and .def_44 A18))) (let ((.def_47 (or .def_46 .def_45))) (let ((.def_48 (not .def_47))) (let ((.def_49 (not A9))) (let ((.def_50 (and A8 .def_49))) (let ((.def_51 (not .def_50))) (let ((.def_52 (not A4))) (let ((.def_53 (or A8 .def_52))) (let ((.def_54 (or .def_53 .def_51))) (let ((.def_55 (and .def_54 .def_48))) (let ((.def_56 (not .def_55))) (let ((.def_57 (and .def_56 .def_43))) (let ((.def_58 (and .def_57 .def_33))) (let ((.def_59 (not .def_58))) (let ((.def_60 (not A19))) (let ((.def_61 (and .def_60 A13))) (let ((.def_62 (not .def_61))) (let ((.def_63 (or A17 .def_60))) (let ((.def_64 (not .def_63))) (let ((.def_65 (= .def_64 .def_62))) (let ((.def_66 (not .def_65))) (let ((.def_67 (not A5))) (let ((.def_68 (or A6 .def_67))) (let ((.def_69 (not .def_68))) (let ((.def_70 (not A12))) (let ((.def_71 (and .def_24 .def_70))) (let ((.def_72 (or .def_71 .def_69))) (let ((.def_73 (and .def_72 .def_66))) (let ((.def_74 (not A20))) (let ((.def_75 (and .def_74 A4))) (let ((.def_76 (and A14 .def_49))) (let ((.def_77 (not .def_76))) (let ((.def_78 (and .def_77 .def_75))) (let ((.def_79 (or A20 .def_74))) (let ((.def_80 (and .def_74 A19))) (let ((.def_81 (not .def_80))) (let ((.def_82 (and .def_81 .def_79))) (let ((.def_83 (and .def_82 .def_78))) (let ((.def_84 (not .def_83))) (let ((.def_85 (and .def_84 .def_73))) (let ((.def_86 (not .def_85))) (let ((.def_87 (not A17))) (let ((.def_88 (and .def_87 .def_60))) (let ((.def_89 (not .def_88))) (let ((.def_90 (or .def_70 A12))) (let ((.def_91 (and .def_90 .def_89))) (let ((.def_92 (or A16 .def_70))) (let ((.def_93 (not .def_92))) (let ((.def_94 (and A2 .def_10))) (let ((.def_95 (and .def_94 .def_93))) (let ((.def_96 (not .def_95))) (let ((.def_97 (or .def_96 .def_91))) (let ((.def_98 (not .def_97))) (let ((.def_99 (or A5 .def_0))) (let ((.def_100 (not .def_99))) (let ((.def_101 (and A22 A10))) (let ((.def_102 (not .def_101))) (let ((.def_103 (or .def_102 .def_100))) (let ((.def_104 (and .def_27 A2))) (let ((.def_105 (or .def_17 A11))) (let ((.def_106 (not .def_105))) (let ((.def_107 (and .def_106 .def_104))) (let ((.def_108 (not .def_107))) (let ((.def_109 (and .def_108 .def_103))) (let ((.def_110 (and .def_109 .def_98))) (let ((.def_111 (not .def_110))) (let ((.def_112 (or .def_111 .def_86))) (let ((.def_113 (not .def_112))) (let ((.def_114 (or .def_113 .def_59))) .def_114))))))))))))))))))))))))))))))))))))))))))))))))))))))))))))))))))))))))))))))))))))))))))))))))))))))))))))))))))))
(check-sat)
